p cnf 464 1167
a 1 2 3 4 5 6 7 8 9 10 11 12 13 14 15 16 17 18 19 20 21 22 23 24 25 26 27 28 29 30 31 32 33 34 35 36 37 38 39 40 41 42 43 44 45 46 47 48 49 50 51 52 53 54 55 56 57 58 59 60 61 62 63 64 0
e 65 66 67 68 69 70 71 72 73 74 75 76 77 78 79 80 81 82 83 84 85 86 87 88 89 90 91 92 93 94 95 96 97 98 99 100 101 102 103 104 105 106 107 108 109 110 111 112 113 114 115 116 117 118 119 120 121 122 123 124 125 126 127 128 129 130 131 132 133 134 135 136 137 138 139 140 141 142 143 144 145 146 147 148 149 150 151 152 153 154 155 156 157 158 159 160 161 162 163 164 165 166 167 168 169 170 171 172 173 174 175 176 177 178 179 180 181 182 183 184 185 186 187 188 189 190 191 192 193 194 195 196 197 198 199 200 201 202 203 204 205 206 207 208 209 210 211 212 213 214 215 216 217 218 219 220 221 222 223 224 225 226 227 228 229 230 231 232 233 234 235 236 237 238 239 240 241 242 243 244 245 246 247 248 249 250 251 252 253 254 255 256 257 258 259 260 261 262 263 264 265 266 267 268 269 270 271 272 273 274 275 276 277 278 279 280 281 282 283 284 285 286 287 288 289 290 291 292 293 294 295 296 297 298 299 300 301 302 303 304 305 306 307 308 309 310 311 312 313 314 315 316 317 318 319 320 321 322 323 324 325 326 327 328 329 330 331 332 333 334 335 336 337 338 339 340 341 342 343 344 345 346 347 348 349 350 351 352 353 354 355 356 357 358 359 360 361 362 363 364 365 366 367 368 369 370 371 372 373 374 375 376 377 378 379 380 381 382 383 384 385 386 387 388 389 390 391 392 393 394 395 396 397 398 399 400 401 402 403 404 405 406 407 408 409 410 411 412 413 414 415 416 417 418 419 420 421 422 423 424 425 426 427 428 429 430 431 432 433 434 435 436 437 438 439 440 441 442 443 444 445 446 447 448 449 450 451 452 453 454 455 456 457 458 459 460 461 462 0
81 65 0
-81 -65 0
82 66 -81 0
-82 81 0
-82 -66 0
83 -82 0
-83 82 0
84 67 -83 0
-84 83 0
-84 -67 0
85 -84 0
-85 84 0
86 68 -85 0
-86 85 0
-86 -68 0
87 -86 0
-87 86 0
88 69 -87 0
-88 87 0
-88 -69 0
89 -88 0
-89 88 0
90 70 -89 0
-90 89 0
-90 -70 0
91 -90 0
-91 90 0
92 71 -91 0
-92 91 0
-92 -71 0
93 -92 0
-93 92 0
94 72 -93 0
-94 93 0
-94 -72 0
95 -94 0
-95 94 0
96 73 -95 0
-96 95 0
-96 -73 0
97 -96 0
-97 96 0
98 74 -97 0
-98 97 0
-98 -74 0
99 -98 0
-99 98 0
100 75 -99 0
-100 99 0
-100 -75 0
101 -100 0
-101 100 0
102 76 -101 0
-102 101 0
-102 -76 0
103 -102 0
-103 102 0
104 77 -103 0
-104 103 0
-104 -77 0
105 -104 0
-105 104 0
106 78 -105 0
-106 105 0
-106 -78 0
107 -106 0
-107 106 0
108 79 -107 0
-108 107 0
-108 -79 0
109 -108 0
-109 108 0
110 80 -109 0
-110 109 0
-110 -80 0
111 -110 0
-111 110 0
113 0
-113 111 -112 0
130 -129 0
130 -128 0
130 -127 0
130 -126 0
130 -125 0
130 -124 0
130 -123 0
130 -122 0
130 -121 0
130 -120 0
130 -119 0
130 -118 0
130 -117 0
130 -116 0
130 -115 0
130 -114 0
-130 114 115 116 117 118 119 120 121 122 123 124 125 126 127 128 129 0
132 0
-132 -130 -131 0
133 1 -65 0
133 -1 65 0
-133 1 65 0
-133 -1 -65 0
134 2 -66 0
134 -2 66 0
-134 2 66 0
-134 -2 -66 0
135 3 -67 0
135 -3 67 0
-135 3 67 0
-135 -3 -67 0
136 4 -68 0
136 -4 68 0
-136 4 68 0
-136 -4 -68 0
137 5 -69 0
137 -5 69 0
-137 5 69 0
-137 -5 -69 0
138 6 -70 0
138 -6 70 0
-138 6 70 0
-138 -6 -70 0
139 7 -71 0
139 -7 71 0
-139 7 71 0
-139 -7 -71 0
140 8 -72 0
140 -8 72 0
-140 8 72 0
-140 -8 -72 0
141 9 -73 0
141 -9 73 0
-141 9 73 0
-141 -9 -73 0
142 10 -74 0
142 -10 74 0
-142 10 74 0
-142 -10 -74 0
143 11 -75 0
143 -11 75 0
-143 11 75 0
-143 -11 -75 0
144 12 -76 0
144 -12 76 0
-144 12 76 0
-144 -12 -76 0
145 13 -77 0
145 -13 77 0
-145 13 77 0
-145 -13 -77 0
146 14 -78 0
146 -14 78 0
-146 14 78 0
-146 -14 -78 0
147 15 -79 0
147 -15 79 0
-147 15 79 0
-147 -15 -79 0
148 16 -80 0
148 -16 80 0
-148 16 80 0
-148 -16 -80 0
149 133 134 135 136 137 138 139 140 141 142 143 144 145 146 147 148 0
-149 -148 0
-149 -147 0
-149 -146 0
-149 -145 0
-149 -144 0
-149 -143 0
-149 -142 0
-149 -141 0
-149 -140 0
-149 -139 0
-149 -138 0
-149 -137 0
-149 -136 0
-149 -135 0
-149 -134 0
-149 -133 0
150 33 -65 0
150 -33 65 0
-150 33 65 0
-150 -33 -65 0
151 34 -66 0
151 -34 66 0
-151 34 66 0
-151 -34 -66 0
152 35 -67 0
152 -35 67 0
-152 35 67 0
-152 -35 -67 0
153 36 -68 0
153 -36 68 0
-153 36 68 0
-153 -36 -68 0
154 37 -69 0
154 -37 69 0
-154 37 69 0
-154 -37 -69 0
155 38 -70 0
155 -38 70 0
-155 38 70 0
-155 -38 -70 0
156 39 -71 0
156 -39 71 0
-156 39 71 0
-156 -39 -71 0
157 40 -72 0
157 -40 72 0
-157 40 72 0
-157 -40 -72 0
158 41 -73 0
158 -41 73 0
-158 41 73 0
-158 -41 -73 0
159 42 -74 0
159 -42 74 0
-159 42 74 0
-159 -42 -74 0
160 43 -75 0
160 -43 75 0
-160 43 75 0
-160 -43 -75 0
161 44 -76 0
161 -44 76 0
-161 44 76 0
-161 -44 -76 0
162 45 -77 0
162 -45 77 0
-162 45 77 0
-162 -45 -77 0
163 46 -78 0
163 -46 78 0
-163 46 78 0
-163 -46 -78 0
164 47 -79 0
164 -47 79 0
-164 47 79 0
-164 -47 -79 0
165 48 -80 0
165 -48 80 0
-165 48 80 0
-165 -48 -80 0
166 150 151 152 153 154 155 156 157 158 159 160 161 162 163 164 165 0
-166 -165 0
-166 -164 0
-166 -163 0
-166 -162 0
-166 -161 0
-166 -160 0
-166 -159 0
-166 -158 0
-166 -157 0
-166 -156 0
-166 -155 0
-166 -154 0
-166 -153 0
-166 -152 0
-166 -151 0
-166 -150 0
167 17 -114 0
167 -17 114 0
-167 17 114 0
-167 -17 -114 0
168 18 -115 0
168 -18 115 0
-168 18 115 0
-168 -18 -115 0
169 19 -116 0
169 -19 116 0
-169 19 116 0
-169 -19 -116 0
170 20 -117 0
170 -20 117 0
-170 20 117 0
-170 -20 -117 0
171 21 -118 0
171 -21 118 0
-171 21 118 0
-171 -21 -118 0
172 22 -119 0
172 -22 119 0
-172 22 119 0
-172 -22 -119 0
173 23 -120 0
173 -23 120 0
-173 23 120 0
-173 -23 -120 0
174 24 -121 0
174 -24 121 0
-174 24 121 0
-174 -24 -121 0
175 25 -122 0
175 -25 122 0
-175 25 122 0
-175 -25 -122 0
176 26 -123 0
176 -26 123 0
-176 26 123 0
-176 -26 -123 0
177 27 -124 0
177 -27 124 0
-177 27 124 0
-177 -27 -124 0
178 28 -125 0
178 -28 125 0
-178 28 125 0
-178 -28 -125 0
179 29 -126 0
179 -29 126 0
-179 29 126 0
-179 -29 -126 0
180 30 -127 0
180 -30 127 0
-180 30 127 0
-180 -30 -127 0
181 31 -128 0
181 -31 128 0
-181 31 128 0
-181 -31 -128 0
182 32 -129 0
182 -32 129 0
-182 32 129 0
-182 -32 -129 0
183 167 168 169 170 171 172 173 174 175 176 177 178 179 180 181 182 0
-183 -182 0
-183 -181 0
-183 -180 0
-183 -179 0
-183 -178 0
-183 -177 0
-183 -176 0
-183 -175 0
-183 -174 0
-183 -173 0
-183 -172 0
-183 -171 0
-183 -170 0
-183 -169 0
-183 -168 0
-183 -167 0
184 49 -114 0
184 -49 114 0
-184 49 114 0
-184 -49 -114 0
185 50 -115 0
185 -50 115 0
-185 50 115 0
-185 -50 -115 0
186 51 -116 0
186 -51 116 0
-186 51 116 0
-186 -51 -116 0
187 52 -117 0
187 -52 117 0
-187 52 117 0
-187 -52 -117 0
188 53 -118 0
188 -53 118 0
-188 53 118 0
-188 -53 -118 0
189 54 -119 0
189 -54 119 0
-189 54 119 0
-189 -54 -119 0
190 55 -120 0
190 -55 120 0
-190 55 120 0
-190 -55 -120 0
191 56 -121 0
191 -56 121 0
-191 56 121 0
-191 -56 -121 0
192 57 -122 0
192 -57 122 0
-192 57 122 0
-192 -57 -122 0
193 58 -123 0
193 -58 123 0
-193 58 123 0
-193 -58 -123 0
194 59 -124 0
194 -59 124 0
-194 59 124 0
-194 -59 -124 0
195 60 -125 0
195 -60 125 0
-195 60 125 0
-195 -60 -125 0
196 61 -126 0
196 -61 126 0
-196 61 126 0
-196 -61 -126 0
197 62 -127 0
197 -62 127 0
-197 62 127 0
-197 -62 -127 0
198 63 -128 0
198 -63 128 0
-198 63 128 0
-198 -63 -128 0
199 64 -129 0
199 -64 129 0
-199 64 129 0
-199 -64 -129 0
200 184 185 186 187 188 189 190 191 192 193 194 195 196 197 198 199 0
-200 -199 0
-200 -198 0
-200 -197 0
-200 -196 0
-200 -195 0
-200 -194 0
-200 -193 0
-200 -192 0
-200 -191 0
-200 -190 0
-200 -189 0
-200 -188 0
-200 -187 0
-200 -186 0
-200 -185 0
-200 -184 0
201 111 130 -149 -166 -183 -200 0
-201 200 0
-201 183 0
-201 166 0
-201 149 0
-201 -130 0
-201 -111 0
234 202 -218 0
-234 -202 0
-234 218 0
235 202 0
235 -218 0
235 -234 0
-235 -202 218 234 0
236 203 -219 0
-236 -203 0
-236 219 0
237 -219 -235 0
-237 235 0
-237 219 0
238 203 -235 0
-238 235 0
-238 -203 0
239 -238 0
239 -237 0
239 -236 0
-239 236 237 238 0
240 204 -220 0
-240 -204 0
-240 220 0
241 -220 -239 0
-241 239 0
-241 220 0
242 204 -239 0
-242 239 0
-242 -204 0
243 -242 0
243 -241 0
243 -240 0
-243 240 241 242 0
244 205 -221 0
-244 -205 0
-244 221 0
245 -221 -243 0
-245 243 0
-245 221 0
246 205 -243 0
-246 243 0
-246 -205 0
247 -246 0
247 -245 0
247 -244 0
-247 244 245 246 0
248 206 -222 0
-248 -206 0
-248 222 0
249 -222 -247 0
-249 247 0
-249 222 0
250 206 -247 0
-250 247 0
-250 -206 0
251 -250 0
251 -249 0
251 -248 0
-251 248 249 250 0
252 207 -223 0
-252 -207 0
-252 223 0
253 -223 -251 0
-253 251 0
-253 223 0
254 207 -251 0
-254 251 0
-254 -207 0
255 -254 0
255 -253 0
255 -252 0
-255 252 253 254 0
256 208 -224 0
-256 -208 0
-256 224 0
257 -224 -255 0
-257 255 0
-257 224 0
258 208 -255 0
-258 255 0
-258 -208 0
259 -258 0
259 -257 0
259 -256 0
-259 256 257 258 0
260 209 -225 0
-260 -209 0
-260 225 0
261 -225 -259 0
-261 259 0
-261 225 0
262 209 -259 0
-262 259 0
-262 -209 0
263 -262 0
263 -261 0
263 -260 0
-263 260 261 262 0
264 210 -226 0
-264 -210 0
-264 226 0
265 -226 -263 0
-265 263 0
-265 226 0
266 210 -263 0
-266 263 0
-266 -210 0
267 -266 0
267 -265 0
267 -264 0
-267 264 265 266 0
268 211 -227 0
-268 -211 0
-268 227 0
269 -227 -267 0
-269 267 0
-269 227 0
270 211 -267 0
-270 267 0
-270 -211 0
271 -270 0
271 -269 0
271 -268 0
-271 268 269 270 0
272 212 -228 0
-272 -212 0
-272 228 0
273 -228 -271 0
-273 271 0
-273 228 0
274 212 -271 0
-274 271 0
-274 -212 0
275 -274 0
275 -273 0
275 -272 0
-275 272 273 274 0
276 213 -229 0
-276 -213 0
-276 229 0
277 -229 -275 0
-277 275 0
-277 229 0
278 213 -275 0
-278 275 0
-278 -213 0
279 -278 0
279 -277 0
279 -276 0
-279 276 277 278 0
280 214 -230 0
-280 -214 0
-280 230 0
281 -230 -279 0
-281 279 0
-281 230 0
282 214 -279 0
-282 279 0
-282 -214 0
283 -282 0
283 -281 0
283 -280 0
-283 280 281 282 0
284 215 -231 0
-284 -215 0
-284 231 0
285 -231 -283 0
-285 283 0
-285 231 0
286 215 -283 0
-286 283 0
-286 -215 0
287 -286 0
287 -285 0
287 -284 0
-287 284 285 286 0
288 216 -232 0
-288 -216 0
-288 232 0
289 -232 -287 0
-289 287 0
-289 232 0
290 216 -287 0
-290 287 0
-290 -216 0
291 -290 0
291 -289 0
291 -288 0
-291 288 289 290 0
292 217 -233 0
-292 -217 0
-292 233 0
293 -233 -291 0
-293 291 0
-293 233 0
294 217 -291 0
-294 291 0
-294 -217 0
295 -294 0
295 -293 0
295 -292 0
-295 292 293 294 0
297 0
-297 295 -296 0
330 298 -314 0
-330 -298 0
-330 314 0
331 298 0
331 -314 0
331 -330 0
-331 -298 314 330 0
332 299 -315 0
-332 -299 0
-332 315 0
333 -315 -331 0
-333 331 0
-333 315 0
334 299 -331 0
-334 331 0
-334 -299 0
335 -334 0
335 -333 0
335 -332 0
-335 332 333 334 0
336 300 -316 0
-336 -300 0
-336 316 0
337 -316 -335 0
-337 335 0
-337 316 0
338 300 -335 0
-338 335 0
-338 -300 0
339 -338 0
339 -337 0
339 -336 0
-339 336 337 338 0
340 301 -317 0
-340 -301 0
-340 317 0
341 -317 -339 0
-341 339 0
-341 317 0
342 301 -339 0
-342 339 0
-342 -301 0
343 -342 0
343 -341 0
343 -340 0
-343 340 341 342 0
344 302 -318 0
-344 -302 0
-344 318 0
345 -318 -343 0
-345 343 0
-345 318 0
346 302 -343 0
-346 343 0
-346 -302 0
347 -346 0
347 -345 0
347 -344 0
-347 344 345 346 0
348 303 -319 0
-348 -303 0
-348 319 0
349 -319 -347 0
-349 347 0
-349 319 0
350 303 -347 0
-350 347 0
-350 -303 0
351 -350 0
351 -349 0
351 -348 0
-351 348 349 350 0
352 304 -320 0
-352 -304 0
-352 320 0
353 -320 -351 0
-353 351 0
-353 320 0
354 304 -351 0
-354 351 0
-354 -304 0
355 -354 0
355 -353 0
355 -352 0
-355 352 353 354 0
356 305 -321 0
-356 -305 0
-356 321 0
357 -321 -355 0
-357 355 0
-357 321 0
358 305 -355 0
-358 355 0
-358 -305 0
359 -358 0
359 -357 0
359 -356 0
-359 356 357 358 0
360 306 -322 0
-360 -306 0
-360 322 0
361 -322 -359 0
-361 359 0
-361 322 0
362 306 -359 0
-362 359 0
-362 -306 0
363 -362 0
363 -361 0
363 -360 0
-363 360 361 362 0
364 307 -323 0
-364 -307 0
-364 323 0
365 -323 -363 0
-365 363 0
-365 323 0
366 307 -363 0
-366 363 0
-366 -307 0
367 -366 0
367 -365 0
367 -364 0
-367 364 365 366 0
368 308 -324 0
-368 -308 0
-368 324 0
369 -324 -367 0
-369 367 0
-369 324 0
370 308 -367 0
-370 367 0
-370 -308 0
371 -370 0
371 -369 0
371 -368 0
-371 368 369 370 0
372 309 -325 0
-372 -309 0
-372 325 0
373 -325 -371 0
-373 371 0
-373 325 0
374 309 -371 0
-374 371 0
-374 -309 0
375 -374 0
375 -373 0
375 -372 0
-375 372 373 374 0
376 310 -326 0
-376 -310 0
-376 326 0
377 -326 -375 0
-377 375 0
-377 326 0
378 310 -375 0
-378 375 0
-378 -310 0
379 -378 0
379 -377 0
379 -376 0
-379 376 377 378 0
380 311 -327 0
-380 -311 0
-380 327 0
381 -327 -379 0
-381 379 0
-381 327 0
382 311 -379 0
-382 379 0
-382 -311 0
383 -382 0
383 -381 0
383 -380 0
-383 380 381 382 0
384 312 -328 0
-384 -312 0
-384 328 0
385 -328 -383 0
-385 383 0
-385 328 0
386 312 -383 0
-386 383 0
-386 -312 0
387 -386 0
387 -385 0
387 -384 0
-387 384 385 386 0
388 313 -329 0
-388 -313 0
-388 329 0
389 -329 -387 0
-389 387 0
-389 329 0
390 313 -387 0
-390 387 0
-390 -313 0
391 -390 0
391 -389 0
391 -388 0
-391 388 389 390 0
393 0
-393 391 -392 0
394 -201 0
394 295 391 0
-394 -391 0
-394 -295 0
395 1 -33 0
395 -1 33 0
-395 1 33 0
-395 -1 -33 0
396 2 -34 0
396 -2 34 0
-396 2 34 0
-396 -2 -34 0
397 3 -35 0
397 -3 35 0
-397 3 35 0
-397 -3 -35 0
398 4 -36 0
398 -4 36 0
-398 4 36 0
-398 -4 -36 0
399 5 -37 0
399 -5 37 0
-399 5 37 0
-399 -5 -37 0
400 6 -38 0
400 -6 38 0
-400 6 38 0
-400 -6 -38 0
401 7 -39 0
401 -7 39 0
-401 7 39 0
-401 -7 -39 0
402 8 -40 0
402 -8 40 0
-402 8 40 0
-402 -8 -40 0
403 9 -41 0
403 -9 41 0
-403 9 41 0
-403 -9 -41 0
404 10 -42 0
404 -10 42 0
-404 10 42 0
-404 -10 -42 0
405 11 -43 0
405 -11 43 0
-405 11 43 0
-405 -11 -43 0
406 12 -44 0
406 -12 44 0
-406 12 44 0
-406 -12 -44 0
407 13 -45 0
407 -13 45 0
-407 13 45 0
-407 -13 -45 0
408 14 -46 0
408 -14 46 0
-408 14 46 0
-408 -14 -46 0
409 15 -47 0
409 -15 47 0
-409 15 47 0
-409 -15 -47 0
410 16 -48 0
410 -16 48 0
-410 16 48 0
-410 -16 -48 0
411 395 396 397 398 399 400 401 402 403 404 405 406 407 408 409 410 0
-411 -410 0
-411 -409 0
-411 -408 0
-411 -407 0
-411 -406 0
-411 -405 0
-411 -404 0
-411 -403 0
-411 -402 0
-411 -401 0
-411 -400 0
-411 -399 0
-411 -398 0
-411 -397 0
-411 -396 0
-411 -395 0
412 202 -218 0
412 -202 218 0
-412 202 218 0
-412 -202 -218 0
413 203 -219 0
413 -203 219 0
-413 203 219 0
-413 -203 -219 0
414 204 -220 0
414 -204 220 0
-414 204 220 0
-414 -204 -220 0
415 205 -221 0
415 -205 221 0
-415 205 221 0
-415 -205 -221 0
416 206 -222 0
416 -206 222 0
-416 206 222 0
-416 -206 -222 0
417 207 -223 0
417 -207 223 0
-417 207 223 0
-417 -207 -223 0
418 208 -224 0
418 -208 224 0
-418 208 224 0
-418 -208 -224 0
419 209 -225 0
419 -209 225 0
-419 209 225 0
-419 -209 -225 0
420 210 -226 0
420 -210 226 0
-420 210 226 0
-420 -210 -226 0
421 211 -227 0
421 -211 227 0
-421 211 227 0
-421 -211 -227 0
422 212 -228 0
422 -212 228 0
-422 212 228 0
-422 -212 -228 0
423 213 -229 0
423 -213 229 0
-423 213 229 0
-423 -213 -229 0
424 214 -230 0
424 -214 230 0
-424 214 230 0
-424 -214 -230 0
425 215 -231 0
425 -215 231 0
-425 215 231 0
-425 -215 -231 0
426 216 -232 0
426 -216 232 0
-426 216 232 0
-426 -216 -232 0
427 217 -233 0
427 -217 233 0
-427 217 233 0
-427 -217 -233 0
428 -411 0
428 412 413 414 415 416 417 418 419 420 421 422 423 424 425 426 427 0
-428 -427 0
-428 -426 0
-428 -425 0
-428 -424 0
-428 -423 0
-428 -422 0
-428 -421 0
-428 -420 0
-428 -419 0
-428 -418 0
-428 -417 0
-428 -416 0
-428 -415 0
-428 -414 0
-428 -413 0
-428 -412 0
429 17 -49 0
429 -17 49 0
-429 17 49 0
-429 -17 -49 0
430 18 -50 0
430 -18 50 0
-430 18 50 0
-430 -18 -50 0
431 19 -51 0
431 -19 51 0
-431 19 51 0
-431 -19 -51 0
432 20 -52 0
432 -20 52 0
-432 20 52 0
-432 -20 -52 0
433 21 -53 0
433 -21 53 0
-433 21 53 0
-433 -21 -53 0
434 22 -54 0
434 -22 54 0
-434 22 54 0
-434 -22 -54 0
435 23 -55 0
435 -23 55 0
-435 23 55 0
-435 -23 -55 0
436 24 -56 0
436 -24 56 0
-436 24 56 0
-436 -24 -56 0
437 25 -57 0
437 -25 57 0
-437 25 57 0
-437 -25 -57 0
438 26 -58 0
438 -26 58 0
-438 26 58 0
-438 -26 -58 0
439 27 -59 0
439 -27 59 0
-439 27 59 0
-439 -27 -59 0
440 28 -60 0
440 -28 60 0
-440 28 60 0
-440 -28 -60 0
441 29 -61 0
441 -29 61 0
-441 29 61 0
-441 -29 -61 0
442 30 -62 0
442 -30 62 0
-442 30 62 0
-442 -30 -62 0
443 31 -63 0
443 -31 63 0
-443 31 63 0
-443 -31 -63 0
444 32 -64 0
444 -32 64 0
-444 32 64 0
-444 -32 -64 0
445 429 430 431 432 433 434 435 436 437 438 439 440 441 442 443 444 0
-445 -444 0
-445 -443 0
-445 -442 0
-445 -441 0
-445 -440 0
-445 -439 0
-445 -438 0
-445 -437 0
-445 -436 0
-445 -435 0
-445 -434 0
-445 -433 0
-445 -432 0
-445 -431 0
-445 -430 0
-445 -429 0
446 298 -314 0
446 -298 314 0
-446 298 314 0
-446 -298 -314 0
447 299 -315 0
447 -299 315 0
-447 299 315 0
-447 -299 -315 0
448 300 -316 0
448 -300 316 0
-448 300 316 0
-448 -300 -316 0
449 301 -317 0
449 -301 317 0
-449 301 317 0
-449 -301 -317 0
450 302 -318 0
450 -302 318 0
-450 302 318 0
-450 -302 -318 0
451 303 -319 0
451 -303 319 0
-451 303 319 0
-451 -303 -319 0
452 304 -320 0
452 -304 320 0
-452 304 320 0
-452 -304 -320 0
453 305 -321 0
453 -305 321 0
-453 305 321 0
-453 -305 -321 0
454 306 -322 0
454 -306 322 0
-454 306 322 0
-454 -306 -322 0
455 307 -323 0
455 -307 323 0
-455 307 323 0
-455 -307 -323 0
456 308 -324 0
456 -308 324 0
-456 308 324 0
-456 -308 -324 0
457 309 -325 0
457 -309 325 0
-457 309 325 0
-457 -309 -325 0
458 310 -326 0
458 -310 326 0
-458 310 326 0
-458 -310 -326 0
459 311 -327 0
459 -311 327 0
-459 311 327 0
-459 -311 -327 0
460 312 -328 0
460 -312 328 0
-460 312 328 0
-460 -312 -328 0
461 313 -329 0
461 -313 329 0
-461 313 329 0
-461 -313 -329 0
462 -445 0
462 446 447 448 449 450 451 452 453 454 455 456 457 458 459 460 461 0
-462 -461 0
-462 -460 0
-462 -459 0
-462 -458 0
-462 -457 0
-462 -456 0
-462 -455 0
-462 -454 0
-462 -453 0
-462 -452 0
-462 -451 0
-462 -450 0
-462 -449 0
-462 -448 0
-462 -447 0
-462 -446 0
